BAYES
324
2 2 2 2 2 2 2 2 2 2 2 2 2 2 2 2 2 2 2 2 2 2 2 2 2 2 2 2 2 2 2 2 2 2 2 2 2 2 2 2 2 2 2 2 2 2 2 2 2 2 2 2 2 2 2 2 2 2 2 2 2 2 2 2 2 2 2 2 2 2 2 2 2 2 2 2 2 2 2 2 2 2 2 2 2 2 2 2 2 2 2 2 2 2 2 2 2 2 2 2 2 2 2 2 2 2 2 2 2 2 2 2 2 2 2 2 2 2 2 2 2 2 2 2 2 2 2 2 2 2 2 2 2 2 2 2 2 2 2 2 2 2 2 2 2 2 2 2 2 2 2 2 2 2 2 2 2 2 2 2 2 2 2 2 2 2 2 2 2 2 2 2 2 2 2 2 2 2 2 2 2 2 2 2 2 2 2 2 2 2 2 2 2 2 2 2 2 2 2 2 2 2 2 2 2 2 2 2 2 2 2 2 2 2 2 2 2 2 2 2 2 2 2 2 2 2 2 2 2 2 2 2 2 2 2 2 2 2 2 2 2 2 2 2 2 2 2 2 2 2 2 2 2 2 2 2 2 2 2 2 2 2 2 2 2 2 2 2 2 2 2 2 2 2 2 2 2 2 2 2 2 2 2 2 2 2 2 2 2 2 2 2 2 2 2 2 2 2 2 2 2 2 2 2 2 2 2 2 2 2 2 2 2 2 2 2 2 2 2 2 2 2 2 2
324
1 0
2 0 1
2 1 2
2 2 3
2 3 4
2 4 5
2 5 6
2 6 7
2 7 8
2 8 9
2 9 10
2 10 11
2 11 12
2 12 13
2 13 14
2 14 15
2 15 16
2 16 17
2 0 18
3 1 18 19
3 2 19 20
3 3 20 21
3 4 21 22
3 5 22 23
3 6 23 24
3 7 24 25
3 8 25 26
3 9 26 27
3 10 27 28
3 11 28 29
3 12 29 30
3 13 30 31
3 14 31 32
3 15 32 33
3 16 33 34
3 17 34 35
2 18 36
3 19 36 37
3 20 37 38
3 21 38 39
3 22 39 40
3 23 40 41
3 24 41 42
3 25 42 43
3 26 43 44
3 27 44 45
3 28 45 46
3 29 46 47
3 30 47 48
3 31 48 49
3 32 49 50
3 33 50 51
3 34 51 52
3 35 52 53
2 36 54
3 37 54 55
3 38 55 56
3 39 56 57
3 40 57 58
3 41 58 59
3 42 59 60
3 43 60 61
3 44 61 62
3 45 62 63
3 46 63 64
3 47 64 65
3 48 65 66
3 49 66 67
3 50 67 68
3 51 68 69
3 52 69 70
3 53 70 71
2 54 72
3 55 72 73
3 56 73 74
3 57 74 75
3 58 75 76
3 59 76 77
3 60 77 78
3 61 78 79
3 62 79 80
3 63 80 81
3 64 81 82
3 65 82 83
3 66 83 84
3 67 84 85
3 68 85 86
3 69 86 87
3 70 87 88
3 71 88 89
2 72 90
3 73 90 91
3 74 91 92
3 75 92 93
3 76 93 94
3 77 94 95
3 78 95 96
3 79 96 97
3 80 97 98
3 81 98 99
3 82 99 100
3 83 100 101
3 84 101 102
3 85 102 103
3 86 103 104
3 87 104 105
3 88 105 106
3 89 106 107
2 90 108
3 91 108 109
3 92 109 110
3 93 110 111
3 94 111 112
3 95 112 113
3 96 113 114
3 97 114 115
3 98 115 116
3 99 116 117
3 100 117 118
3 101 118 119
3 102 119 120
3 103 120 121
3 104 121 122
3 105 122 123
3 106 123 124
3 107 124 125
2 108 126
3 109 126 127
3 110 127 128
3 111 128 129
3 112 129 130
3 113 130 131
3 114 131 132
3 115 132 133
3 116 133 134
3 117 134 135
3 118 135 136
3 119 136 137
3 120 137 138
3 121 138 139
3 122 139 140
3 123 140 141
3 124 141 142
3 125 142 143
2 126 144
3 127 144 145
3 128 145 146
3 129 146 147
3 130 147 148
3 131 148 149
3 132 149 150
3 133 150 151
3 134 151 152
3 135 152 153
3 136 153 154
3 137 154 155
3 138 155 156
3 139 156 157
3 140 157 158
3 141 158 159
3 142 159 160
3 143 160 161
2 144 162
3 145 162 163
3 146 163 164
3 147 164 165
3 148 165 166
3 149 166 167
3 150 167 168
3 151 168 169
3 152 169 170
3 153 170 171
3 154 171 172
3 155 172 173
3 156 173 174
3 157 174 175
3 158 175 176
3 159 176 177
3 160 177 178
3 161 178 179
2 162 180
3 163 180 181
3 164 181 182
3 165 182 183
3 166 183 184
3 167 184 185
3 168 185 186
3 169 186 187
3 170 187 188
3 171 188 189
3 172 189 190
3 173 190 191
3 174 191 192
3 175 192 193
3 176 193 194
3 177 194 195
3 178 195 196
3 179 196 197
2 180 198
3 181 198 199
3 182 199 200
3 183 200 201
3 184 201 202
3 185 202 203
3 186 203 204
3 187 204 205
3 188 205 206
3 189 206 207
3 190 207 208
3 191 208 209
3 192 209 210
3 193 210 211
3 194 211 212
3 195 212 213
3 196 213 214
3 197 214 215
2 198 216
3 199 216 217
3 200 217 218
3 201 218 219
3 202 219 220
3 203 220 221
3 204 221 222
3 205 222 223
3 206 223 224
3 207 224 225
3 208 225 226
3 209 226 227
3 210 227 228
3 211 228 229
3 212 229 230
3 213 230 231
3 214 231 232
3 215 232 233
2 216 234
3 217 234 235
3 218 235 236
3 219 236 237
3 220 237 238
3 221 238 239
3 222 239 240
3 223 240 241
3 224 241 242
3 225 242 243
3 226 243 244
3 227 244 245
3 228 245 246
3 229 246 247
3 230 247 248
3 231 248 249
3 232 249 250
3 233 250 251
2 234 252
3 235 252 253
3 236 253 254
3 237 254 255
3 238 255 256
3 239 256 257
3 240 257 258
3 241 258 259
3 242 259 260
3 243 260 261
3 244 261 262
3 245 262 263
3 246 263 264
3 247 264 265
3 248 265 266
3 249 266 267
3 250 267 268
3 251 268 269
2 252 270
3 253 270 271
3 254 271 272
3 255 272 273
3 256 273 274
3 257 274 275
3 258 275 276
3 259 276 277
3 260 277 278
3 261 278 279
3 262 279 280
3 263 280 281
3 264 281 282
3 265 282 283
3 266 283 284
3 267 284 285
3 268 285 286
3 269 286 287
2 270 288
3 271 288 289
3 272 289 290
3 273 290 291
3 274 291 292
3 275 292 293
3 276 293 294
3 277 294 295
3 278 295 296
3 279 296 297
3 280 297 298
3 281 298 299
3 282 299 300
3 283 300 301
3 284 301 302
3 285 302 303
3 286 303 304
3 287 304 305
2 288 306
3 289 306 307
3 290 307 308
3 291 308 309
3 292 309 310
3 293 310 311
3 294 311 312
3 295 312 313
3 296 313 314
3 297 314 315
3 298 315 316
3 299 316 317
3 300 317 318
3 301 318 319
3 302 319 320
3 303 320 321
3 304 321 322
3 305 322 323

2
0.276436 0.723564
4
1.0 0.0 0.0 1.0
4
1.0 0.0 0.0 1.0
4
0.980407 0.0195925 0.454254 0.545746
4
0.389179 0.610821 0.200356 0.799644
4
0.0 1.0 1.0 0.0
4
0.0 1.0 1.0 0.0
4
0.246415 0.753585 0.66285 0.33715
4
1.0 0.0 0.0 1.0
4
0.668658 0.331342 0.0472446 0.952755
4
0.0385319 0.961468 0.291105 0.708895
4
0.0 1.0 1.0 0.0
4
0.199785 0.800215 0.854401 0.145599
4
1.0 0.0 0.0 1.0
4
0.0 1.0 1.0 0.0
4
1.0 0.0 0.0 1.0
4
1.0 0.0 0.0 1.0
4
0.814974 0.185026 0.822453 0.177547
4
0.7607 0.2393 0.830169 0.169831
8
0.642969 0.357031 0.0765838 0.923416 0.35855 0.64145 0.966181 0.0338186
8
0.177715 0.822285 0.634839 0.365161 0.022822 0.977178 0.866952 0.133048
8
0.313927 0.686073 0.00901344 0.990987 0.235636 0.764364 0.197326 0.802674
8
0.0 1.0 1.0 0.0 1.0 0.0 0.0 1.0
8
0.716366 0.283634 0.423902 0.576098 0.228343 0.771657 0.338463 0.661537
8
1.0 0.0 0.0 1.0 1.0 0.0 1.0 0.0
8
0.939738 0.0602622 0.446986 0.553014 0.0676688 0.932331 0.298288 0.701712
8
0.0 1.0 1.0 0.0 1.0 0.0 0.0 1.0
8
0.0 1.0 0.0 1.0 1.0 0.0 0.0 1.0
8
0.560766 0.439234 0.0470499 0.95295 0.934483 0.0655173 0.109289 0.890711
8
0.737031 0.262969 0.825655 0.174345 0.954148 0.0458525 0.965375 0.0346252
8
0.0 1.0 1.0 0.0 0.0 1.0 0.0 1.0
8
0.31612 0.68388 0.452946 0.547054 0.259695 0.740305 0.383788 0.616212
8
0.672863 0.327137 0.427035 0.572965 0.227236 0.772764 0.720869 0.279131
8
1.0 0.0 1.0 0.0 0.0 1.0 0.0 1.0
8
0.0 1.0 1.0 0.0 1.0 0.0 1.0 0.0
8
0.976555 0.0234448 0.121934 0.878066 0.417869 0.582131 0.930703 0.0692972
4
0.0 1.0 1.0 0.0
8
1.0 0.0 0.0 1.0 1.0 0.0 0.0 1.0
8
0.0 1.0 1.0 0.0 1.0 0.0 1.0 0.0
8
0.0339646 0.966035 0.144498 0.855502 0.562138 0.437862 0.527067 0.472933
8
0.00438413 0.995616 0.400166 0.599834 0.636847 0.363153 0.403644 0.596356
8
0.119771 0.880229 0.849954 0.150046 0.235488 0.764512 0.711985 0.288015
8
0.357421 0.642579 0.129855 0.870145 0.757212 0.242788 0.44473 0.55527
8
0.957085 0.0429145 0.540731 0.459269 0.618864 0.381136 0.670167 0.329833
8
0.0 1.0 0.0 1.0 0.0 1.0 1.0 0.0
8
0.459116 0.540884 0.482901 0.517099 0.897953 0.102047 0.0212532 0.978747
8
1.0 0.0 1.0 0.0 0.0 1.0 0.0 1.0
8
0.0 1.0 0.0 1.0 0.0 1.0 1.0 0.0
8
1.0 0.0 0.0 1.0 1.0 0.0 1.0 0.0
8
0.820043 0.179957 0.839089 0.160911 0.541805 0.458195 0.49021 0.50979
8
0.0 1.0 1.0 0.0 0.0 1.0 1.0 0.0
8
1.0 0.0 1.0 0.0 0.0 1.0 1.0 0.0
8
0.412383 0.587617 0.735749 0.264251 0.839941 0.160059 0.841665 0.158335
8
0.2092 0.7908 0.120901 0.879099 0.492674 0.507326 0.290445 0.709555
4
0.0 1.0 1.0 0.0
8
0.089603 0.910397 0.64466 0.35534 0.424485 0.575515 0.909646 0.0903542
8
0.0 1.0 1.0 0.0 1.0 0.0 0.0 1.0
8
0.678655 0.321345 0.182848 0.817152 0.806118 0.193882 0.0441481 0.955852
8
1.0 0.0 1.0 0.0 0.0 1.0 1.0 0.0
8
0.55986 0.44014 0.214325 0.785675 0.684942 0.315058 0.556328 0.443672
8
0.0 1.0 1.0 0.0 1.0 0.0 1.0 0.0
8
1.0 0.0 0.0 1.0 1.0 0.0 1.0 0.0
8
0.606288 0.393712 0.431592 0.568408 0.29599 0.70401 0.956389 0.0436114
8
0.0 1.0 0.0 1.0 1.0 0.0 0.0 1.0
8
0.7479 0.2521 0.449688 0.550312 0.461843 0.538157 0.122284 0.877716
8
0.0 1.0 1.0 0.0 0.0 1.0 0.0 1.0
8
0.78375 0.21625 0.627034 0.372966 0.474103 0.525897 0.816238 0.183762
8
0.0 1.0 0.0 1.0 1.0 0.0 1.0 0.0
8
0.586014 0.413986 0.935901 0.0640986 0.401659 0.598341 0.882004 0.117996
8
0.559511 0.440489 0.85665 0.14335 0.0315265 0.968473 0.523481 0.476519
8
0.669259 0.330741 0.271381 0.728619 0.325131 0.674869 0.131102 0.868898
8
1.0 0.0 1.0 0.0 0.0 1.0 1.0 0.0
4
0.490406 0.509594 0.379754 0.620246
8
0.0 1.0 1.0 0.0 1.0 0.0 0.0 1.0
8
0.0 1.0 0.0 1.0 1.0 0.0 0.0 1.0
8
0.506048 0.493952 0.910529 0.0894712 0.81193 0.18807 0.0655589 0.934441
8
0.843457 0.156543 0.589039 0.410961 0.642622 0.357378 0.512716 0.487284
8
0.967753 0.0322467 0.643818 0.356182 0.254085 0.745915 0.58585 0.41415
8
0.984358 0.0156423 0.181854 0.818146 0.527461 0.472539 0.474764 0.525236
8
0.885333 0.114667 0.439273 0.560727 0.7576 0.2424 0.265542 0.734458
8
1.0 0.0 0.0 1.0 0.0 1.0 0.0 1.0
8
0.996779 0.00322148 0.50236 0.49764 0.647106 0.352894 0.808709 0.191291
8
0.414285 0.585715 0.652166 0.347834 0.156958 0.843042 0.056907 0.943093
8
1.0 0.0 0.0 1.0 0.0 1.0 0.0 1.0
8
0.255821 0.744179 0.792364 0.207636 0.132785 0.867215 0.730585 0.269415
8
0.0 1.0 1.0 0.0 1.0 0.0 1.0 0.0
8
1.0 0.0 0.0 1.0 1.0 0.0 0.0 1.0
8
1.0 0.0 1.0 0.0 0.0 1.0 1.0 0.0
8
0.798048 0.201952 0.227043 0.772957 0.846589 0.153411 0.96293 0.0370699
8
0.0 1.0 0.0 1.0 1.0 0.0 1.0 0.0
4
1.0 0.0 0.0 1.0
8
0.0 1.0 1.0 0.0 0.0 1.0 1.0 0.0
8
0.739667 0.260333 0.811518 0.188482 0.935404 0.0645958 0.743162 0.256838
8
0.275799 0.724201 0.742969 0.257031 0.531521 0.468479 0.612972 0.387028
8
1.0 0.0 1.0 0.0 0.0 1.0 0.0 1.0
8
0.542262 0.457738 0.54319 0.45681 0.519833 0.480167 0.786682 0.213318
8
1.0 0.0 0.0 1.0 1.0 0.0 1.0 0.0
8
0.0 1.0 1.0 0.0 1.0 0.0 0.0 1.0
8
0.248707 0.751293 0.538084 0.461916 0.517531 0.482469 0.184111 0.815889
8
1.0 0.0 1.0 0.0 0.0 1.0 1.0 0.0
8
1.0 0.0 1.0 0.0 0.0 1.0 1.0 0.0
8
0.0 1.0 1.0 0.0 1.0 0.0 1.0 0.0
8
0.41343 0.58657 0.199936 0.800064 0.216079 0.783921 0.309629 0.690371
8
0.29035 0.70965 0.47995 0.52005 0.0465094 0.953491 0.86691 0.13309
8
0.0 1.0 1.0 0.0 0.0 1.0 0.0 1.0
8
1.0 0.0 1.0 0.0 0.0 1.0 1.0 0.0
8
0.0 1.0 1.0 0.0 0.0 1.0 0.0 1.0
8
0.658102 0.341898 0.0528984 0.947102 0.102662 0.897338 0.657093 0.342907
4
0.0161746 0.983825 0.0705234 0.929477
8
0.0 1.0 0.0 1.0 1.0 0.0 0.0 1.0
8
0.0761704 0.92383 0.389513 0.610487 0.13847 0.86153 0.828693 0.171307
8
0.954921 0.045079 0.0987472 0.901253 0.804858 0.195142 0.0526188 0.947381
8
0.564496 0.435504 0.174532 0.825468 0.132661 0.867339 0.397017 0.602983
8
0.334961 0.665039 0.0612756 0.938724 0.541625 0.458375 0.993063 0.00693737
8
0.0 1.0 0.0 1.0 1.0 0.0 0.0 1.0
8
0.0 1.0 0.0 1.0 1.0 0.0 0.0 1.0
8
0.342685 0.657315 0.804831 0.195169 0.0994032 0.900597 0.171378 0.828622
8
0.0 1.0 0.0 1.0 1.0 0.0 0.0 1.0
8
0.679315 0.320685 0.281475 0.718525 0.0923496 0.90765 0.0763323 0.923668
8
0.427311 0.572689 0.137608 0.862392 0.388894 0.611106 0.420373 0.579627
8
1.0 0.0 0.0 1.0 1.0 0.0 1.0 0.0
8
0.564181 0.435819 0.586358 0.413642 0.892039 0.107961 0.830696 0.169304
8
1.0 0.0 0.0 1.0 0.0 1.0 0.0 1.0
8
0.0 1.0 0.0 1.0 1.0 0.0 1.0 0.0
8
1.0 0.0 1.0 0.0 1.0 0.0 0.0 1.0
8
1.0 0.0 0.0 1.0 0.0 1.0 1.0 0.0
4
0.0 1.0 1.0 0.0
8
0.703653 0.296347 0.358106 0.641894 0.376344 0.623656 0.267835 0.732165
8
0.268383 0.731617 0.0985305 0.90147 0.946141 0.0538589 0.121356 0.878644
8
1.0 0.0 0.0 1.0 0.0 1.0 1.0 0.0
8
1.0 0.0 1.0 0.0 0.0 1.0 0.0 1.0
8
1.0 0.0 0.0 1.0 1.0 0.0 1.0 0.0
8
0.122491 0.877509 0.462862 0.537138 0.0818911 0.918109 0.498817 0.501183
8
1.0 0.0 0.0 1.0 1.0 0.0 1.0 0.0
8
0.0 1.0 0.0 1.0 0.0 1.0 1.0 0.0
8
1.0 0.0 0.0 1.0 0.0 1.0 1.0 0.0
8
0.587273 0.412727 0.688973 0.311027 0.0982117 0.901788 0.781349 0.218651
8
1.0 0.0 0.0 1.0 0.0 1.0 0.0 1.0
8
1.0 0.0 1.0 0.0 0.0 1.0 1.0 0.0
8
0.792309 0.207691 0.284354 0.715646 0.930948 0.0690519 0.277739 0.722261
8
0.0 1.0 1.0 0.0 1.0 0.0 0.0 1.0
8
1.0 0.0 1.0 0.0 0.0 1.0 0.0 1.0
8
0.0 1.0 0.0 1.0 0.0 1.0 1.0 0.0
8
0.452326 0.547674 0.417591 0.582409 0.318592 0.681408 0.420478 0.579522
4
0.520715 0.479285 0.955914 0.0440855
8
0.185699 0.814301 0.573242 0.426758 0.4829 0.5171 0.978008 0.0219919
8
0.413848 0.586152 0.255747 0.744253 0.185321 0.814679 0.815101 0.184899
8
0.824799 0.175201 0.785189 0.214811 0.0470466 0.952953 0.897386 0.102614
8
0.259399 0.740601 0.476814 0.523186 0.864276 0.135724 0.469555 0.530445
8
0.821501 0.178499 0.777923 0.222077 0.591564 0.408436 0.273826 0.726174
8
1.0 0.0 0.0 1.0 0.0 1.0 0.0 1.0
8
1.0 0.0 0.0 1.0 0.0 1.0 1.0 0.0
8
1.0 0.0 0.0 1.0 1.0 0.0 1.0 0.0
8
0.0 1.0 0.0 1.0 1.0 0.0 1.0 0.0
8
1.0 0.0 1.0 0.0 0.0 1.0 0.0 1.0
8
0.0 1.0 1.0 0.0 1.0 0.0 1.0 0.0
8
1.0 0.0 0.0 1.0 1.0 0.0 0.0 1.0
8
0.0953447 0.904655 0.715707 0.284293 0.252633 0.747367 0.176402 0.823598
8
0.0 1.0 0.0 1.0 1.0 0.0 1.0 0.0
8
0.245429 0.754571 0.777414 0.222586 0.522524 0.477476 0.813186 0.186814
8
0.987902 0.0120978 0.24522 0.75478 0.487268 0.512732 0.0967949 0.903205
8
0.0 1.0 0.0 1.0 1.0 0.0 1.0 0.0
4
0.0 1.0 1.0 0.0
8
0.449349 0.550651 0.119664 0.880336 0.459563 0.540437 0.107404 0.892596
8
1.0 0.0 1.0 0.0 1.0 0.0 0.0 1.0
8
0.536116 0.463884 0.379659 0.620341 0.368152 0.631848 0.781545 0.218455
8
1.0 0.0 0.0 1.0 1.0 0.0 0.0 1.0
8
0.541904 0.458096 0.975373 0.0246267 0.338704 0.661296 0.3968 0.6032
8
0.364819 0.635181 0.814836 0.185164 0.18049 0.81951 0.612599 0.387401
8
0.629839 0.370161 0.732262 0.267738 0.97585 0.0241496 0.737243 0.262757
8
0.15112 0.84888 0.0972804 0.90272 0.338681 0.661319 0.413541 0.586459
8
0.172873 0.827127 0.949657 0.0503432 0.939935 0.0600649 0.541025 0.458975
8
0.0970078 0.902992 0.431701 0.568299 0.325932 0.674068 0.151644 0.848356
8
0.0 1.0 1.0 0.0 0.0 1.0 0.0 1.0
8
0.0 1.0 0.0 1.0 1.0 0.0 0.0 1.0
8
0.0 1.0 1.0 0.0 0.0 1.0 1.0 0.0
8
0.161536 0.838464 0.548443 0.451557 0.703131 0.296869 0.500217 0.499783
8
0.263407 0.736593 0.67309 0.32691 0.911641 0.0883591 0.203342 0.796658
8
1.0 0.0 1.0 0.0 1.0 0.0 0.0 1.0
8
1.0 0.0 0.0 1.0 1.0 0.0 1.0 0.0
4
0.235891 0.764109 0.300028 0.699972
8
0.141076 0.858924 0.538797 0.461203 0.99065 0.00935024 0.562549 0.437451
8
1.0 0.0 0.0 1.0 1.0 0.0 0.0 1.0
8
0.716386 0.283614 0.866668 0.133332 0.470299 0.529701 0.979793 0.0202068
8
0.38194 0.61806 0.183136 0.816864 0.753873 0.246127 0.0247818 0.975218
8
1.0 0.0 1.0 0.0 0.0 1.0 0.0 1.0
8
1.0 0.0 0.0 1.0 0.0 1.0 0.0 1.0
8
0.2761 0.7239 0.457991 0.542009 0.436362 0.563638 0.26675 0.73325
8
1.0 0.0 1.0 0.0 1.0 0.0 0.0 1.0
8
0.488725 0.511275 0.573407 0.426593 0.704783 0.295217 0.959024 0.0409758
8
0.244541 0.755459 0.340964 0.659036 0.736336 0.263664 0.998414 0.00158559
8
1.0 0.0 1.0 0.0 0.0 1.0 1.0 0.0
8
0.487513 0.512487 0.236325 0.763675 0.351429 0.648571 0.254967 0.745033
8
0.248995 0.751005 0.531067 0.468933 0.0112303 0.98877 0.685357 0.314643
8
0.0317694 0.968231 0.529124 0.470876 0.269483 0.730517 0.0121801 0.98782
8
0.0 1.0 1.0 0.0 1.0 0.0 1.0 0.0
8
0.0 1.0 1.0 0.0 1.0 0.0 0.0 1.0
8
0.0 1.0 1.0 0.0 1.0 0.0 1.0 0.0
4
1.0 0.0 0.0 1.0
8
0.558763 0.441237 0.268421 0.731579 0.413779 0.586221 0.807758 0.192242
8
0.425009 0.574991 0.493116 0.506884 0.597306 0.402694 0.456779 0.543221
8
1.0 0.0 0.0 1.0 1.0 0.0 1.0 0.0
8
0.367938 0.632062 0.786768 0.213232 0.429794 0.570206 0.880691 0.119309
8
0.230687 0.769313 0.12978 0.87022 0.899028 0.100972 0.397327 0.602673
8
0.35247 0.64753 0.923267 0.0767329 0.222905 0.777095 0.559804 0.440196
8
0.0834446 0.916555 0.118568 0.881432 0.205142 0.794858 0.497224 0.502776
8
0.00462994 0.99537 0.922233 0.0777672 0.419441 0.580559 0.601936 0.398064
8
1.0 0.0 0.0 1.0 0.0 1.0 0.0 1.0
8
1.0 0.0 0.0 1.0 1.0 0.0 0.0 1.0
8
1.0 0.0 0.0 1.0 1.0 0.0 1.0 0.0
8
0.325068 0.674932 0.798909 0.201091 0.0500712 0.949929 0.884872 0.115128
8
0.133516 0.866484 0.00343955 0.99656 0.940772 0.0592278 0.630739 0.369261
8
0.945402 0.0545979 0.552972 0.447028 0.349207 0.650793 0.547338 0.452662
8
0.790888 0.209112 0.0160613 0.983939 0.779954 0.220046 0.640954 0.359046
8
1.0 0.0 1.0 0.0 1.0 0.0 0.0 1.0
8
0.762619 0.237381 0.323732 0.676268 0.186125 0.813875 0.735217 0.264783
4
1.0 0.0 0.0 1.0
8
0.0 1.0 1.0 0.0 1.0 0.0 0.0 1.0
8
1.0 0.0 0.0 1.0 1.0 0.0 1.0 0.0
8
0.0 1.0 0.0 1.0 0.0 1.0 1.0 0.0
8
0.0 1.0 1.0 0.0 1.0 0.0 0.0 1.0
8
0.331709 0.668291 0.535731 0.464269 0.476018 0.523982 0.0943281 0.905672
8
0.662143 0.337857 0.829545 0.170455 0.0588375 0.941162 0.675434 0.324566
8
0.0571214 0.942879 0.738796 0.261204 0.834986 0.165014 0.791036 0.208964
8
0.783582 0.216418 0.465722 0.534278 0.763292 0.236708 0.661944 0.338056
8
0.0 1.0 0.0 1.0 0.0 1.0 1.0 0.0
8
1.0 0.0 0.0 1.0 0.0 1.0 1.0 0.0
8
1.0 0.0 1.0 0.0 1.0 0.0 0.0 1.0
8
0.223905 0.776095 0.334966 0.665034 0.693327 0.306673 0.899339 0.100661
8
1.0 0.0 0.0 1.0 0.0 1.0 0.0 1.0
8
0.843364 0.156636 0.00720629 0.992794 0.337101 0.662899 0.505307 0.494693
8
0.0 1.0 1.0 0.0 0.0 1.0 0.0 1.0
8
0.0 1.0 1.0 0.0 1.0 0.0 0.0 1.0
8
0.95591 0.0440897 0.273456 0.726544 0.500739 0.499261 0.517673 0.482327
4
0.135228 0.864772 0.741578 0.258422
8
1.0 0.0 0.0 1.0 1.0 0.0 0.0 1.0
8
1.0 0.0 0.0 1.0 1.0 0.0 0.0 1.0
8
1.0 0.0 1.0 0.0 0.0 1.0 1.0 0.0
8
0.0 1.0 1.0 0.0 1.0 0.0 0.0 1.0
8
0.0 1.0 1.0 0.0 1.0 0.0 0.0 1.0
8
1.0 0.0 1.0 0.0 0.0 1.0 1.0 0.0
8
0.378483 0.621517 0.285035 0.714965 0.170941 0.829059 0.717121 0.282879
8
0.449993 0.550007 0.11554 0.88446 0.984527 0.0154732 0.302855 0.697145
8
1.0 0.0 0.0 1.0 0.0 1.0 1.0 0.0
8
1.0 0.0 1.0 0.0 0.0 1.0 0.0 1.0
8
1.0 0.0 0.0 1.0 1.0 0.0 1.0 0.0
8
1.0 0.0 0.0 1.0 1.0 0.0 1.0 0.0
8
1.0 0.0 1.0 0.0 1.0 0.0 0.0 1.0
8
1.0 0.0 1.0 0.0 1.0 0.0 0.0 1.0
8
0.781021 0.218979 0.711013 0.288987 0.0117375 0.988263 0.885435 0.114565
8
1.0 0.0 1.0 0.0 0.0 1.0 0.0 1.0
8
0.193685 0.806315 0.814597 0.185403 0.828664 0.171336 0.655835 0.344165
4
0.105323 0.894677 0.603749 0.396251
8
0.170428 0.829572 0.816303 0.183697 0.975959 0.0240415 0.765557 0.234443
8
0.0 1.0 0.0 1.0 1.0 0.0 0.0 1.0
8
0.0 1.0 0.0 1.0 1.0 0.0 0.0 1.0
8
1.0 0.0 0.0 1.0 0.0 1.0 1.0 0.0
8
0.401498 0.598502 0.760191 0.239809 0.831731 0.168269 0.216094 0.783906
8
0.487566 0.512434 0.71815 0.28185 0.694178 0.305822 0.091315 0.908685
8
0.0 1.0 0.0 1.0 0.0 1.0 1.0 0.0
8
1.0 0.0 1.0 0.0 1.0 0.0 0.0 1.0
8
1.0 0.0 0.0 1.0 1.0 0.0 1.0 0.0
8
1.0 0.0 0.0 1.0 1.0 0.0 0.0 1.0
8
0.0 1.0 0.0 1.0 1.0 0.0 0.0 1.0
8
0.0 1.0 0.0 1.0 0.0 1.0 1.0 0.0
8
0.511489 0.488511 0.677816 0.322184 0.370927 0.629073 0.826447 0.173553
8
0.532716 0.467284 0.856905 0.143095 0.880389 0.119611 0.442194 0.557806
8
1.0 0.0 0.0 1.0 1.0 0.0 1.0 0.0
8
0.0 1.0 1.0 0.0 1.0 0.0 0.0 1.0
8
0.290772 0.709228 0.438023 0.561977 0.725618 0.274382 0.816644 0.183356
4
0.238174 0.761826 0.0606665 0.939333
8
1.0 0.0 1.0 0.0 0.0 1.0 0.0 1.0
8
1.0 0.0 0.0 1.0 0.0 1.0 0.0 1.0
8
0.0 1.0 1.0 0.0 1.0 0.0 1.0 0.0
8
1.0 0.0 0.0 1.0 1.0 0.0 1.0 0.0
8
0.0 1.0 0.0 1.0 1.0 0.0 1.0 0.0
8
1.0 0.0 0.0 1.0 0.0 1.0 0.0 1.0
8
1.0 0.0 0.0 1.0 0.0 1.0 0.0 1.0
8
1.0 0.0 0.0 1.0 1.0 0.0 0.0 1.0
8
1.0 0.0 1.0 0.0 0.0 1.0 1.0 0.0
8
0.224678 0.775322 0.633864 0.366136 0.76338 0.23662 0.476038 0.523962
8
0.80011 0.19989 0.428026 0.571974 0.434146 0.565854 0.274862 0.725138
8
0.0 1.0 1.0 0.0 0.0 1.0 0.0 1.0
8
0.779238 0.220762 0.175598 0.824402 0.788398 0.211602 0.890596 0.109404
8
0.0 1.0 0.0 1.0 1.0 0.0 0.0 1.0
8
0.0204859 0.979514 0.959453 0.0405475 0.901829 0.098171 0.501175 0.498825
8
0.0 1.0 1.0 0.0 1.0 0.0 0.0 1.0
8
1.0 0.0 1.0 0.0 0.0 1.0 1.0 0.0
4
0.0 1.0 1.0 0.0
8
1.0 0.0 0.0 1.0 0.0 1.0 0.0 1.0
8
0.467252 0.532748 0.430287 0.569713 0.426796 0.573204 0.810716 0.189284
8
0.608731 0.391269 0.142346 0.857654 0.454796 0.545204 0.118891 0.881109
8
1.0 0.0 0.0 1.0 1.0 0.0 1.0 0.0
8
0.0 1.0 1.0 0.0 0.0 1.0 1.0 0.0
8
0.767714 0.232286 0.221667 0.778333 0.805447 0.194553 0.0794409 0.920559
8
0.877947 0.122053 0.760787 0.239213 0.714177 0.285823 0.169602 0.830398
8
1.0 0.0 0.0 1.0 0.0 1.0 1.0 0.0
8
1.0 0.0 1.0 0.0 0.0 1.0 1.0 0.0
8
1.0 0.0 1.0 0.0 1.0 0.0 0.0 1.0
8
1.0 0.0 1.0 0.0 1.0 0.0 0.0 1.0
8
1.0 0.0 0.0 1.0 1.0 0.0 1.0 0.0
8
1.0 0.0 0.0 1.0 1.0 0.0 0.0 1.0
8
0.0 1.0 0.0 1.0 0.0 1.0 1.0 0.0
8
1.0 0.0 1.0 0.0 0.0 1.0 1.0 0.0
8
0.27997 0.72003 0.335188 0.664812 0.00353732 0.996463 0.370182 0.629818
8
0.0 1.0 0.0 1.0 0.0 1.0 1.0 0.0
4
1.0 0.0 0.0 1.0
8
0.821043 0.178957 0.405801 0.594199 0.556551 0.443449 0.0794441 0.920556
8
0.716245 0.283755 0.740522 0.259478 0.23903 0.76097 0.512792 0.487208
8
0.0 1.0 1.0 0.0 1.0 0.0 1.0 0.0
8
0.139531 0.860469 0.872558 0.127442 0.177725 0.822275 0.419501 0.580499
8
0.0 1.0 0.0 1.0 1.0 0.0 0.0 1.0
8
0.367799 0.632201 0.199934 0.800066 0.391615 0.608385 0.691228 0.308772
8
0.0 1.0 0.0 1.0 0.0 1.0 1.0 0.0
8
0.131515 0.868485 0.23087 0.76913 0.332237 0.667763 0.370546 0.629454
8
0.566801 0.433199 0.828551 0.171449 0.500572 0.499428 0.782769 0.217231
8
0.0915146 0.908485 0.9223 0.0777002 0.663994 0.336006 0.269239 0.730761
8
0.0 1.0 0.0 1.0 0.0 1.0 1.0 0.0
8
1.0 0.0 0.0 1.0 0.0 1.0 1.0 0.0
8
0.0 1.0 1.0 0.0 1.0 0.0 0.0 1.0
8
0.497296 0.502704 0.23614 0.76386 0.163969 0.836031 0.829532 0.170468
8
0.907631 0.0923687 0.396333 0.603667 0.435237 0.564763 0.408203 0.591797
8
0.0 1.0 1.0 0.0 1.0 0.0 1.0 0.0
8
1.0 0.0 0.0 1.0 0.0 1.0 0.0 1.0